1
1000
60
351 1
258 1
391 1
359 1
259 1
382 1
376 1
308 1
316 1
445 1
275 1
280 1
426 1
276 1
298 1
468 1
259 1
273 1
453 1
258 1
289 1
443 1
253 1
304 1
380 1
261 1
359 1
377 1
304 1
319 1
483 1
254 1
263 1
451 1
261 1
288 1
373 1
263 1
364 1
417 1
276 1
307 1
363 1
294 1
343 1
442 1
254 1
304 1
412 1
256 1
332 1
369 1
262 1
369 1
429 1
252 1
319 1
397 1
266 1
337 1
